
Gurobi 9.5.0 (linux64) logging started Tue Nov  7 19:20:54 2023

Set parameter LogFile to value "/lustre1/scratch/348/vsc34888/JointResearch/05.Models/06.Benchmarking/F.Representative_days_based_on_Line_Benefit_NN_OC_fy_1/RTS24_ByStages_nc50/openStarNet_RTS24_ByStages_nc50.log"
Set parameter Method to value 2
Set parameter MIPFocus to value 1
Set parameter Presolve to value 2
Set parameter RINS to value 100
Set parameter MIPGap to value 0.01
Set parameter Threads to value 36
Set parameter TimeLimit to value 604800
Set parameter IterationLimit to value 760000000
Gurobi Optimizer version 9.5.0 build v9.5.0rc5 (linux64)
Thread count: 36 physical cores, 36 logical processors, using up to 36 threads
Optimize a model with 22253 rows, 12755 columns and 61006 nonzeros
Model fingerprint: 0xcd06573f
Variable types: 12716 continuous, 39 integer (39 binary)
Coefficient statistics:
  Matrix range     [6e-03, 2e+03]
  Objective range  [1e+00, 1e+00]
  Bounds range     [4e-04, 3e+00]
  RHS range        [4e-04, 3e+00]
Presolve removed 10853 rows and 5428 columns
Presolve time: 0.10s
Presolved: 11400 rows, 7327 columns, 39638 nonzeros
Variable types: 7288 continuous, 39 integer (39 binary)
Found heuristic solution: objective 159.2283960
Root relaxation presolved: 11400 rows, 7327 columns, 39638 nonzeros

Root barrier log...

Ordering time: 0.00s

Barrier statistics:
 Dense cols : 39
 AA' NZ     : 8.435e+04
 Factor NZ  : 2.830e+05 (roughly 10 MB of memory)
 Factor Ops : 8.910e+06 (less than 1 second per iteration)
 Threads    : 36

                  Objective                Residual
Iter       Primal          Dual         Primal    Dual     Compl     Time
   0   5.91368717e+05 -1.32910623e+08  4.20e+00 6.15e+02  1.59e+04     0s
   1   6.78754272e+04 -3.45514589e+07  3.63e-01 8.23e-09  1.98e+03     0s
   2   2.49977645e+04 -4.38756298e+06  1.08e-02 4.29e-09  1.94e+02     0s
   3   1.86027418e+04 -1.55485336e+05  1.12e-12 1.46e-10  7.52e+00     0s
   4   3.28004046e+03 -3.35177988e+04  1.57e-12 2.30e-11  1.59e+00     0s
   5   1.11388067e+03 -8.48703893e+03  4.82e-13 5.52e-12  4.15e-01     0s
   6   4.73690776e+02 -2.36930372e+03  4.33e-13 1.82e-12  1.23e-01     0s
   7   3.29759311e+02 -6.60652302e+02  2.73e-13 1.82e-12  4.28e-02     0s
   8   1.98178273e+02 -1.10187131e+02  3.09e-13 3.64e-12  1.33e-02     0s
   9   1.46513858e+02 -1.44606475e+00  2.59e-13 3.64e-12  6.39e-03     0s
  10   1.14237866e+02  7.15708540e+01  2.27e-13 7.28e-12  1.84e-03     0s
  11   9.92540856e+01  8.78477874e+01  3.09e-12 1.82e-12  4.93e-04     0s
  12   9.67560083e+01  9.09744791e+01  2.78e-12 1.82e-12  2.50e-04     0s
  13   9.57511613e+01  9.24153526e+01  2.28e-12 3.64e-12  1.44e-04     0s
  14   9.48949443e+01  9.30640561e+01  6.34e-12 1.82e-12  7.91e-05     0s
  15   9.44852900e+01  9.35832899e+01  7.81e-12 3.64e-12  3.90e-05     0s
  16   9.41954383e+01  9.38403644e+01  7.33e-12 9.09e-13  1.53e-05     0s
  17   9.41324109e+01  9.39157321e+01  6.46e-12 1.82e-12  9.36e-06     0s
  18   9.40624618e+01  9.39632477e+01  3.77e-11 3.64e-12  4.28e-06     0s
  19   9.40179352e+01  9.39931509e+01  9.55e-11 3.64e-12  1.07e-06     0s
  20   9.40108612e+01  9.40097569e+01  1.58e-10 1.82e-12  4.77e-08     1s
  21   9.40108059e+01  9.40108024e+01  9.27e-09 1.82e-12  1.54e-10     1s
  22   9.40108052e+01  9.40108052e+01  4.82e-11 3.64e-12  1.54e-13     1s

Barrier solved model in 22 iterations and 0.52 seconds (0.35 work units)
Optimal objective 9.40108052e+01


Root relaxation: objective 9.401081e+01, 946 iterations, 0.38 seconds (0.21 work units)

    Nodes    |    Current Node    |     Objective Bounds      |     Work
 Expl Unexpl |  Obj  Depth IntInf | Incumbent    BestBd   Gap | It/Node Time

     0     0   94.01081    0   13  159.22840   94.01081  41.0%     -    0s
H    0     0                     129.3437417   94.01081  27.3%     -    0s
     0     0   96.08716    0   12  129.34374   96.08716  25.7%     -    1s
H    0     0                     111.9815441   96.08716  14.2%     -    1s
H    0     0                     111.3121739   96.08716  13.7%     -    1s
     0     0   97.00776    0   12  111.31217   97.00776  12.9%     -    1s
     0     0   97.00793    0   12  111.31217   97.00793  12.9%     -    1s
     0     0   97.28180    0   11  111.31217   97.28180  12.6%     -    1s
     0     0   97.34773    0   10  111.31217   97.34773  12.5%     -    1s
     0     0   97.34796    0   11  111.31217   97.34796  12.5%     -    1s
     0     0   97.37893    0   10  111.31217   97.37893  12.5%     -    2s
     0     0   97.38592    0   11  111.31217   97.38592  12.5%     -    2s
     0     0   97.38594    0   11  111.31217   97.38594  12.5%     -    2s
     0     0   97.39403    0   11  111.31217   97.39403  12.5%     -    2s
H    0     0                     105.2139851   97.39403  7.43%     -    3s
     0     2   97.39403    0   10  105.21399   97.39403  7.43%     -    4s
    99    22  103.09583    9    8  105.21399  101.01700  3.99%   193    5s

Cutting planes:
  Gomory: 2
  Implied bound: 55
  MIR: 292
  Relax-and-lift: 3

Explored 170 nodes (28556 simplex iterations) in 9.49 seconds (11.78 work units)
Thread count was 36 (of 36 available processors)

Solution count 5: 105.214 111.312 111.982 ... 159.228

Optimal solution found (tolerance 1.00e-02)
Best objective 1.052139850789e+02, best bound 1.045134093498e+02, gap 0.6659%

Gurobi 9.5.0 (linux64) logging started Tue Nov  7 19:21:05 2023

Set parameter LogFile to value "/lustre1/scratch/348/vsc34888/JointResearch/05.Models/06.Benchmarking/F.Representative_days_based_on_Line_Benefit_NN_OC_fy_1/RTS24_ByStages_nc50/openStarNet_RTS24_ByStages_nc50.log"
Set parameter Method to value 2
Set parameter MIPFocus to value 1
Set parameter Presolve to value 2
Set parameter RINS to value 100
Set parameter MIPGap to value 0.01
Set parameter Threads to value 36
Set parameter TimeLimit to value 604800
Set parameter IterationLimit to value 760000000
No parameters matching 'relax_integrality' found
Gurobi Optimizer version 9.5.0 build v9.5.0rc5 (linux64)
Thread count: 36 physical cores, 36 logical processors, using up to 36 threads
Optimize a model with 22253 rows, 12716 columns and 53167 nonzeros
Model fingerprint: 0xca6454b8
Coefficient statistics:
  Matrix range     [6e-03, 2e+03]
  Objective range  [1e+00, 1e+00]
  Bounds range     [4e-04, 3e+00]
  RHS range        [4e-04, 3e+01]
Presolve removed 17605 rows and 5932 columns
Presolve time: 0.02s
Presolved: 4648 rows, 6884 columns, 17080 nonzeros

Ordering time: 0.00s

Barrier statistics:
 AA' NZ     : 1.199e+04
 Factor NZ  : 5.121e+04 (roughly 4 MB of memory)
 Factor Ops : 7.808e+05 (less than 1 second per iteration)
 Threads    : 1

                  Objective                Residual
Iter       Primal          Dual         Primal    Dual     Compl     Time
   0   1.04142784e+06 -8.30645049e+08  3.30e+00 1.25e+03  1.30e+05     0s
   1   9.62287217e+04 -1.20789883e+08  2.60e-01 8.76e-11  1.28e+04     0s
   2   4.50987146e+04 -1.55118029e+07  6.66e-02 9.28e-11  1.51e+03     0s
   3   2.87985993e+04 -9.27142236e+05  9.01e-04 7.26e-11  8.12e+01     0s
   4   1.66245754e+04 -1.19261452e+05  1.03e-12 3.62e-11  1.15e+01     0s
   5   7.15289750e+03 -3.28682875e+04  7.16e-13 1.82e-11  3.39e+00     0s
   6   1.24428572e+03 -6.37224593e+03  3.04e-13 1.46e-11  6.44e-01     0s
   7   5.53970554e+02 -1.77283968e+03  3.80e-13 7.28e-12  1.97e-01     0s
   8   3.01267490e+02 -3.69836998e+02  3.76e-13 2.91e-11  5.68e-02     0s
   9   1.84002484e+02 -9.66836313e+01  1.20e-12 3.64e-12  2.37e-02     0s
  10   1.40872855e+02  5.19523723e+01  6.78e-13 7.28e-12  7.52e-03     0s
  11   1.23847208e+02  8.44421580e+01  5.74e-13 2.91e-11  3.33e-03     0s
  12   1.11671485e+02  9.82960631e+01  6.99e-12 2.91e-11  1.13e-03     0s
  13   1.06563135e+02  1.04228211e+02  2.64e-11 7.28e-12  1.98e-04     0s
  14   1.05458527e+02  1.05132770e+02  6.83e-11 7.28e-12  2.76e-05     0s
  15   1.05217678e+02  1.05203726e+02  3.05e-10 2.91e-11  1.18e-06     0s
  16   1.05215994e+02  1.05213284e+02  1.76e-10 7.28e-12  2.29e-07     0s
  17   1.05214102e+02  1.05213979e+02  2.14e-11 1.46e-11  1.04e-08     0s
  18   1.05213985e+02  1.05213985e+02  1.03e-11 7.28e-12  7.06e-14     0s

Barrier solved model in 18 iterations and 0.08 seconds (0.07 work units)
Optimal objective 1.05213985e+02

Crossover log...

     634 DPushes remaining with DInf 0.0000000e+00                 0s
       0 DPushes remaining with DInf 0.0000000e+00                 0s

     279 PPushes remaining with PInf 0.0000000e+00                 0s
       0 PPushes remaining with PInf 0.0000000e+00                 0s

  Push phase complete: Pinf 0.0000000e+00, Dinf 3.4454733e-12      0s

Iteration    Objective       Primal Inf.    Dual Inf.      Time
     349    1.0521399e+02   0.000000e+00   0.000000e+00      0s

Use crossover to convert LP symmetric solution to basic solution...
Crossover log...

       0 DPushes remaining with DInf 0.0000000e+00                 0s

     195 PPushes remaining with PInf 0.0000000e+00                 0s
       0 PPushes remaining with PInf 0.0000000e+00                 0s

  Push phase complete: Pinf 0.0000000e+00, Dinf 1.4809409e-12      0s

Iteration    Objective       Primal Inf.    Dual Inf.      Time
     560    1.0521399e+02   0.000000e+00   0.000000e+00      0s

Solved in 560 iterations and 0.12 seconds (0.10 work units)
Optimal objective  1.052139851e+02
